Route #1: 1 70 54
Route #2: 32 33 53 73 95 24
Route #3: 38 47 26 48 96 64 34
Route #4: 14 49 6 37 87
Route #5: 8 17
Route #6: 100 61 23
Route #7: 35 46 31
Route #8: 30 85 11 79
Route #9: 15 22 41 20
Route #10: 21 56 94 80
Route #11: 92 9 86
Route #12: 4 13 74
Route #13: 3 77 63
Route #14: 71 62 99 98 89
Route #15: 93 75
Route #16: 44 67 88 40
Route #17: 27 97 19
Route #18: 59 60 82
Route #19: 39 10 18
Route #20: 57 72 36 29 43 45 2 7
Route #21: 83 51 81
Route #22: 25 65 78 42 28
Route #23: 50 91 52
Route #24: 68 90 84 66
Route #25: 76 55 16 69
Route #26: 5 12 58
Cost 27591.0000
Time 16.0007